NAME : X_26_seed_123_id_5
TYPE : CVRP
DIMENSION : 219
EDGE_WEIGHT_TYPE : EUC_2D
CAPACITY : 3
NODE_COORD_SECTION
1	0	0
2	489	764
3	210	106
4	171	208
5	832	319
6	3	762
7	676	797
8	685	669
9	185	156
10	877	980
11	322	817
12	472	898
13	842	870
14	365	932
15	761	468
16	876	879
17	77	486
18	873	990
19	423	666
20	464	855
21	418	186
22	502	530
23	737	898
24	886	17
25	350	782
26	302	153
27	296	876
28	121	592
29	652	145
30	203	341
31	548	44
32	394	879
33	140	566
34	611	344
35	567	786
36	896	845
37	129	644
38	368	262
39	154	158
40	488	719
41	255	696
42	983	109
43	608	673
44	133	949
45	514	481
46	522	788
47	230	443
48	361	61
49	23	686
50	577	566
51	291	413
52	315	442
53	794	518
54	0	679
55	726	582
56	144	252
57	475	787
58	286	543
59	252	485
60	194	632
61	912	298
62	467	30
63	520	635
64	444	382
65	470	927
66	87	904
67	93	20
68	115	918
69	283	621
70	965	700
71	659	14
72	49	824
73	755	246
74	602	34
75	660	442
76	359	947
77	907	725
78	708	320
79	168	176
80	923	258
81	607	828
82	113	357
83	651	565
84	261	547
85	885	84
86	306	89
87	2	301
88	309	833
89	136	37
90	424	369
91	947	336
92	980	125
93	468	106
94	808	571
95	178	820
96	226	737
97	890	887
98	130	147
99	112	372
100	277	471
101	42	432
102	156	587
103	674	470
104	973	56
105	414	631
106	949	550
107	599	295
108	882	481
109	614	79
110	192	533
111	397	482
112	781	374
113	369	186
114	450	453
115	250	44
116	246	842
117	996	218
118	988	522
119	321	59
120	203	312
121	831	599
122	762	23
123	864	657
124	359	20
125	725	978
126	577	720
127	487	114
128	54	702
129	963	73
130	298	909
131	77	921
132	778	600
133	478	158
134	926	810
135	611	505
136	344	158
137	86	681
138	653	561
139	272	325
140	260	850
141	101	938
142	331	191
143	930	782
144	311	254
145	99	469
146	204	461
147	69	778
148	413	630
149	66	264
150	910	6
151	131	31
152	779	216
153	95	462
154	413	154
155	113	775
156	282	846
157	197	176
158	634	562
159	928	212
160	372	663
161	534	999
162	973	486
163	535	573
164	296	286
165	507	362
166	2	878
167	340	787
168	923	932
169	772	655
170	986	534
171	607	605
172	517	61
173	134	718
174	701	245
175	17	296
176	301	334
177	898	946
178	6	490
179	993	94
180	0	69
181	831	29
182	578	845
183	306	772
184	628	298
185	119	278
186	951	154
187	899	836
188	203	846
189	160	729
190	710	599
191	851	104
192	763	344
193	659	976
194	90	483
195	290	47
196	840	348
197	400	117
198	902	559
199	844	209
200	551	801
201	650	205
202	15	874
203	146	520
204	284	254
205	712	250
206	385	935
207	823	760
208	774	568
209	35	724
210	790	99
211	94	411
212	894	847
213	344	163
214	264	450
215	59	182
216	265	931
217	968	893
218	128	64
219	584	538
DEMAND_SECTION
1	0
2	1
3	1
4	1
5	1
6	1
7	1
8	1
9	1
10	1
11	1
12	1
13	1
14	1
15	1
16	1
17	1
18	1
19	1
20	1
21	1
22	1
23	1
24	1
25	1
26	1
27	1
28	1
29	1
30	1
31	1
32	1
33	1
34	1
35	1
36	1
37	1
38	1
39	1
40	1
41	1
42	1
43	1
44	1
45	1
46	1
47	1
48	1
49	1
50	1
51	1
52	1
53	1
54	1
55	1
56	1
57	1
58	1
59	1
60	1
61	1
62	1
63	1
64	1
65	1
66	1
67	1
68	1
69	1
70	1
71	1
72	1
73	1
74	1
75	1
76	1
77	1
78	1
79	1
80	1
81	1
82	1
83	1
84	1
85	1
86	1
87	1
88	1
89	1
90	1
91	1
92	1
93	1
94	1
95	1
96	1
97	1
98	1
99	1
100	1
101	1
102	1
103	1
104	1
105	1
106	1
107	1
108	1
109	1
110	1
111	1
112	1
113	1
114	1
115	1
116	1
117	1
118	1
119	1
120	1
121	1
122	1
123	1
124	1
125	1
126	1
127	1
128	1
129	1
130	1
131	1
132	1
133	1
134	1
135	1
136	1
137	1
138	1
139	1
140	1
141	1
142	1
143	1
144	1
145	1
146	1
147	1
148	1
149	1
150	1
151	1
152	1
153	1
154	1
155	1
156	1
157	1
158	1
159	1
160	1
161	1
162	1
163	1
164	1
165	1
166	1
167	1
168	1
169	1
170	1
171	1
172	1
173	1
174	1
175	1
176	1
177	1
178	1
179	1
180	1
181	1
182	1
183	1
184	1
185	1
186	1
187	1
188	1
189	1
190	1
191	1
192	1
193	1
194	1
195	1
196	1
197	1
198	1
199	1
200	1
201	1
202	1
203	1
204	1
205	1
206	1
207	1
208	1
209	1
210	1
211	1
212	1
213	1
214	1
215	1
216	1
217	1
218	1
219	1
DEPOT_SECTION
1
-1
EOF
